(set-logic QF_SLAH)

(declare-datatypes ((data_t 0)) (((c_data_t (sz Int)))))

(declare-heap (Int data_t))

(define-fun hck ((?x Int) (?y Int) (?v Int)) Bool
	(and
		(>= (- ?y ?x) 2) (<= (- ?y ?x) ?v)
		(sep (pto ?x (c_data_t (- ?y ?x))) (blk (+ ?x 1) ?y))
))

(define-fun-rec hls ((?x Int) (?y Int) (?v Int)) Bool
	(or
		(and (= ?x ?y) (_ emp Int data_t))
		(exists ((?w Int)) (sep (hck ?x ?w ?v) (hls ?w ?y ?v)))
))

(declare-const x0 Int)
(declare-const x1 Int)
(declare-const x2 Int)
(declare-const x3 Int)
(declare-const v2 Int)
(declare-const x4 Int)
(declare-const x5 Int)
(declare-const x6 Int)
(declare-const x7 Int)
(declare-const x8 Int)
(declare-const x9 Int)
(declare-const v8 Int)
(declare-const x10 Int)
(declare-const x11 Int)
(declare-const x12 Int)
(declare-const x13 Int)
(declare-const v12 Int)
(declare-const x14 Int)
(declare-const x15 Int)
(declare-const x16 Int)
(declare-const x17 Int)
(declare-const x18 Int)
(declare-const x19 Int)
(declare-const x20 Int)
(declare-const x21 Int)
(declare-const x22 Int)
(declare-const x23 Int)
(declare-const x24 Int)
(declare-const x25 Int)
(declare-const x26 Int)
(declare-const x27 Int)
(declare-const v26 Int)
(declare-const x28 Int)
(declare-const x29 Int)
(declare-const x30 Int)
(declare-const x31 Int)
(declare-const v30 Int)
(declare-const x32 Int)
(declare-const x33 Int)
(declare-const x34 Int)
(declare-const x35 Int)
(declare-const x36 Int)
(declare-const x37 Int)
(declare-const x38 Int)
(declare-const x39 Int)
(declare-const x40 Int)
(declare-const x41 Int)
(declare-const x42 Int)
(declare-const x43 Int)
(declare-const x44 Int)
(declare-const x45 Int)
(declare-const x46 Int)
(declare-const x47 Int)
(declare-const x48 Int)
(declare-const x49 Int)
(declare-const x50 Int)
(declare-const x51 Int)
(declare-const x52 Int)
(declare-const x53 Int)
(declare-const x54 Int)
(declare-const x55 Int)
(declare-const v54 Int)
(declare-const x56 Int)
(declare-const x57 Int)
(declare-const v56 Int)
(declare-const x58 Int)
(declare-const x59 Int)
(declare-const v58 Int)
(declare-const x60 Int)
(declare-const x61 Int)
(declare-const x62 Int)
(declare-const x63 Int)
(declare-const x64 Int)
(declare-const x65 Int)
(declare-const x66 Int)
(declare-const x67 Int)
(declare-const x68 Int)
(declare-const x69 Int)
(declare-const x70 Int)
(declare-const x71 Int)
(declare-const x72 Int)
(declare-const x73 Int)
(declare-const x74 Int)
(declare-const x75 Int)
(declare-const x76 Int)
(declare-const x77 Int)
(declare-const x78 Int)
(declare-const x79 Int)
(declare-const v78 Int)
(declare-const x80 Int)
(declare-const x81 Int)
(declare-const v80 Int)
(declare-const x82 Int)
(declare-const x83 Int)
(declare-const x84 Int)
(declare-const x85 Int)
(declare-const x86 Int)
(declare-const x87 Int)
(declare-const x88 Int)
(declare-const x89 Int)
(declare-const x90 Int)
(declare-const x91 Int)
(declare-const x92 Int)
(declare-const x93 Int)
(declare-const x94 Int)
(declare-const x95 Int)
(declare-const x96 Int)
(declare-const x97 Int)
(declare-const x98 Int)
(declare-const x99 Int)
(declare-const x100 Int)
(declare-const x101 Int)
(declare-const v100 Int)
(declare-const x102 Int)
(declare-const x103 Int)
(declare-const v102 Int)
(declare-const x104 Int)
(declare-const x105 Int)
(declare-const x106 Int)
(declare-const x107 Int)
(declare-const x108 Int)
(declare-const x109 Int)
(declare-const v108 Int)
(declare-const x110 Int)
(declare-const x111 Int)
(declare-const x112 Int)
(declare-const x113 Int)
(declare-const x114 Int)
(declare-const x115 Int)
(declare-const x116 Int)
(declare-const x117 Int)
(declare-const v116 Int)
(declare-const x118 Int)
(declare-const x119 Int)
(declare-const x120 Int)
(declare-const x121 Int)
(declare-const x122 Int)
(declare-const x123 Int)
(declare-const x124 Int)
(declare-const x125 Int)
(declare-const x126 Int)
(declare-const x127 Int)
(declare-const x128 Int)
(declare-const x129 Int)
(declare-const x130 Int)
(declare-const x131 Int)
(declare-const x132 Int)
(declare-const x133 Int)
(declare-const x134 Int)
(declare-const x135 Int)
(declare-const x136 Int)
(declare-const x137 Int)
(declare-const x138 Int)
(declare-const x139 Int)
(declare-const x140 Int)
(declare-const x141 Int)
(declare-const x142 Int)
(declare-const x143 Int)
(declare-const x144 Int)
(declare-const x145 Int)
(declare-const x146 Int)
(declare-const x147 Int)
(declare-const x148 Int)
(declare-const x149 Int)
(declare-const v148 Int)
(declare-const x150 Int)
(declare-const x151 Int)
(declare-const v150 Int)
(declare-const x152 Int)
(declare-const x153 Int)
(declare-const x154 Int)
(declare-const x155 Int)
(declare-const v154 Int)
(declare-const x156 Int)
(declare-const x157 Int)
(declare-const v156 Int)
(declare-const x158 Int)
(declare-const x159 Int)
(declare-const x160 Int)
(declare-const x161 Int)
(declare-const v160 Int)
(declare-const x162 Int)
(declare-const x163 Int)
(declare-const v162 Int)
(declare-const x164 Int)
(declare-const x165 Int)
(declare-const v164 Int)
(declare-const x166 Int)
(declare-const x167 Int)
(declare-const v166 Int)
(declare-const x168 Int)
(declare-const x169 Int)

(assert(and
(distinct x124 x105) (= x76 x56) (distinct x159 x157) (< x162 x10) 
(sep
(pto x0 (c_data_t x1))
(hls x2 x3 v2)
(pto x4 (c_data_t x5))
(pto x6 (c_data_t x7))
(hls x8 x9 v8)
(pto x10 (c_data_t x11))
(hls x12 x13 v12)
(pto x14 (c_data_t x15))
(blk x16 x17)
(pto x18 (c_data_t x19))
(blk x20 x21)
(pto x22 (c_data_t x23))
(blk x24 x25)
(hls x26 x27 v26)
(blk x28 x29)
(hls x30 x31 v30)
(blk x32 x33)
(blk x34 x35)
(pto x36 (c_data_t x37))
(pto x38 (c_data_t x39))
(pto x40 (c_data_t x41))
(blk x42 x43)
(blk x44 x45)
(blk x46 x47)
(blk x48 x49)
(pto x50 (c_data_t x51))
(pto x52 (c_data_t x53))
(hls x54 x55 v54)
(hls x56 x57 v56)
(hls x58 x59 v58)
(blk x60 x61)
(pto x62 (c_data_t x63))
(blk x64 x65)
(blk x66 x67)
(blk x68 x69)
(pto x70 (c_data_t x71))
(pto x72 (c_data_t x73))
(blk x74 x75)
(pto x76 (c_data_t x77))
(hls x78 x79 v78)
(hls x80 x81 v80)
(pto x82 (c_data_t x83))
(blk x84 x85)
(pto x86 (c_data_t x87))
(pto x88 (c_data_t x89))
(blk x90 x91)
(blk x92 x93)
(blk x94 x95)
(pto x96 (c_data_t x97))
(blk x98 x99)
(hls x100 x101 v100)
(hls x102 x103 v102)
(blk x104 x105)
(blk x106 x107)
(hls x108 x109 v108)
(blk x110 x111)
(blk x112 x113)
(blk x114 x115)
(hls x116 x117 v116)
(blk x118 x119)
(blk x120 x121)
(pto x122 (c_data_t x123))
(blk x124 x125)
(pto x126 (c_data_t x127))
(blk x128 x129)
(pto x130 (c_data_t x131))
(pto x132 (c_data_t x133))
(pto x134 (c_data_t x135))
(blk x136 x137)
(blk x138 x139)
(blk x140 x141)
(pto x142 (c_data_t x143))
(pto x144 (c_data_t x145))
(blk x146 x147)
(hls x148 x149 v148)
(hls x150 x151 v150)
(blk x152 x153)
(hls x154 x155 v154)
(hls x156 x157 v156)
(pto x158 (c_data_t x159))
(hls x160 x161 v160)
(hls x162 x163 v162)
(hls x164 x165 v164)
(hls x166 x167 v166)
(pto x168 (c_data_t x169))
)))

(check-sat)